Minimize
  n_fork_029_flop + cst_0_icmp_05_flop + icmp_0_fork_132_flop + cst_3_branch_417_flop + start_0_forkC_538_flop + branchC_0_phiC_046_flop + branchC_0_phiC_2156_flop + cst_5_phi_n5110_flop + branch_4_phi_19151_flop + branch_4_sink_2173_flop + branch_6_phi_n3100_flop + branch_6_sink_3174_flop + branchC_8_forkC_954_flop + branchC_8_sink_5176_flop + fork_0_icmp_04_flop + fork_0_branch_621_flop + fork_1_branchC_012_flop + fork_1_branch_418_flop + fork_1_branch_622_flop + fork_1_branchC_826_flop + fork_1_phi_19150_flop + forkC_5_cst_02_flop + forkC_5_cst_37_flop + forkC_5_branchC_011_flop + forkC_5_cst_515_flop + forkC_5_branchC_825_flop + cst_1_phi_362_flop + phiC_0_forkC_1057_flop + branchC_1_phiC_191_flop + branchC_1_sink_1160_flop + cst_4_branchC_149_flop + forkC_9_cst_144_flop + forkC_9_phiC_4104_flop + forkC_10_branchC_148_flop + forkC_10_cst_452_flop + load_6_MC_feature167_flop + load_9_MC_weight170_flop + load_12_LSQ_hist162_flop + store_0_LSQ_hist163_flop + store_0_LSQ_hist164_flop + branchC_2_phiC_2157_flop + branch_3_phi_19152_flop + branch_7_sink_4175_flop + branchC_10_sink_6177_flop + forkC_11_LSQ_hist161_flop + phi_19_ret_0154_flop + ret_0_end_0181_flop + phiC_2_sink_0159_flop + LSQ_hist_load_1272_flop + LSQ_hist_end_0178_flop + MC_feature_load_664_flop + MC_feature_end_0179_flop + MC_weight_load_968_flop + MC_weight_end_0180_flop
Subject to
  timePath_n_out1 <= 4
  timePath_fork_0_in1 <= 4
  8 n_fork_029_flop - timePath_n_out1 + timePath_fork_0_in1 >= 0
  timePath_cst_0_out1 <= 4
  timePath_icmp_0_in2 <= 4
  8 cst_0_icmp_05_flop - timePath_cst_0_out1 + timePath_icmp_0_in2 >= 0
  timePath_icmp_0_out1 <= 4
  timePath_fork_1_in1 <= 4
  8 icmp_0_fork_132_flop - timePath_icmp_0_out1 + timePath_fork_1_in1 >= 0
  timePath_cst_3_out1 <= 4
  timePath_branch_4_in1 <= 4
  8 cst_3_branch_417_flop - timePath_cst_3_out1 + timePath_branch_4_in1 >= 0
  timePath_start_0_out1 <= 4
  timePath_forkC_5_in1 <= 4
  8 start_0_forkC_538_flop - timePath_start_0_out1 + timePath_forkC_5_in1 >= 0
  timePath_branchC_0_out1 <= 4
  timePath_phiC_0_in1 <= 4
  8 branchC_0_phiC_046_flop - timePath_branchC_0_out1 + timePath_phiC_0_in1 >= 0
  timePath_branchC_0_out2 <= 4
  timePath_phiC_2_in1 <= 4
  8 branchC_0_phiC_2156_flop - timePath_branchC_0_out2 + timePath_phiC_2_in1 >= 0
  timePath_cst_5_out1 <= 4
  timePath_phi_n5_in1 <= 4
  8 cst_5_phi_n5110_flop - timePath_cst_5_out1 + timePath_phi_n5_in1 >= 0
  timePath_branch_4_out2 <= 4
  timePath_phi_19_in2 <= 4
  8 branch_4_phi_19151_flop - timePath_branch_4_out2 + timePath_phi_19_in2 >= 0
  timePath_branch_4_out1 <= 4
  timePath_sink_2_in1 <= 4
  8 branch_4_sink_2173_flop - timePath_branch_4_out1 + timePath_sink_2_in1 >= 0
  timePath_branch_6_out2 <= 4
  timePath_phi_n3_in3 <= 4
  8 branch_6_phi_n3100_flop - timePath_branch_6_out2 + timePath_phi_n3_in3 >= 0
  timePath_branch_6_out1 <= 4
  timePath_sink_3_in1 <= 4
  8 branch_6_sink_3174_flop - timePath_branch_6_out1 + timePath_sink_3_in1 >= 0
  timePath_branchC_8_out2 <= 4
  timePath_forkC_9_in1 <= 4
  8 branchC_8_forkC_954_flop - timePath_branchC_8_out2 + timePath_forkC_9_in1 >= 0
  timePath_branchC_8_out1 <= 4
  timePath_sink_5_in1 <= 4
  8 branchC_8_sink_5176_flop - timePath_branchC_8_out1 + timePath_sink_5_in1 >= 0
  timePath_fork_0_out1 <= 4
  timePath_icmp_0_in1 <= 4
  8 fork_0_icmp_04_flop + timePath_icmp_0_in1 - timePath_fork_0_out1 >= 0
  timePath_fork_0_out2 <= 4
  timePath_branch_6_in1 <= 4
  8 fork_0_branch_621_flop + timePath_branch_6_in1 - timePath_fork_0_out2 >= 0
  timePath_fork_1_out5 <= 4
  timePath_branchC_0_in2 <= 4
  8 fork_1_branchC_012_flop + timePath_branchC_0_in2 - timePath_fork_1_out5 >= 0
  timePath_fork_1_out1 <= 4
  timePath_branch_4_in2 <= 4
  8 fork_1_branch_418_flop + timePath_branch_4_in2 - timePath_fork_1_out1 >= 0
  timePath_fork_1_out2 <= 4
  timePath_branch_6_in2 <= 4
  8 fork_1_branch_622_flop + timePath_branch_6_in2 - timePath_fork_1_out2 >= 0
  timePath_fork_1_out3 <= 4
  timePath_branchC_8_in2 <= 4
  8 fork_1_branchC_826_flop + timePath_branchC_8_in2 - timePath_fork_1_out3 >= 0
  timePath_fork_1_out4 <= 4
  timePath_phi_19_in1 <= 4
  8 fork_1_phi_19150_flop - timePath_fork_1_out4 + timePath_phi_19_in1 >= 0
  timePath_forkC_5_out1 <= 4
  timePath_cst_0_in1 <= 4
  8 forkC_5_cst_02_flop + timePath_cst_0_in1 - timePath_forkC_5_out1 >= 0
  timePath_forkC_5_out3 <= 4
  timePath_cst_3_in1 <= 4
  8 forkC_5_cst_37_flop + timePath_cst_3_in1 - timePath_forkC_5_out3 >= 0
  timePath_forkC_5_out5 <= 4
  timePath_branchC_0_in1 <= 4
  8 forkC_5_branchC_011_flop + timePath_branchC_0_in1 - timePath_forkC_5_out5 >= 0
  timePath_forkC_5_out4 <= 4
  timePath_cst_5_in1 <= 4
  8 forkC_5_cst_515_flop + timePath_cst_5_in1 - timePath_forkC_5_out4 >= 0
  timePath_forkC_5_out2 <= 4
  timePath_branchC_8_in1 <= 4
  8 forkC_5_branchC_825_flop + timePath_branchC_8_in1 - timePath_forkC_5_out2 >= 0
  timePath_cst_1_out1 <= 4
  timePath_phi_3_in3 <= 4
  8 cst_1_phi_362_flop - timePath_cst_1_out1 + timePath_phi_3_in3 >= 0
  timePath_phiC_0_out1 <= 4
  timePath_forkC_10_in1 <= 4
  8 phiC_0_forkC_1057_flop - timePath_phiC_0_out1 + timePath_forkC_10_in1 >= 0
  timePath_branchC_1_out1 <= 4
  timePath_phiC_1_in1 <= 4
  8 branchC_1_phiC_191_flop - timePath_branchC_1_out1 + timePath_phiC_1_in1 >= 0
  timePath_branchC_1_out2 <= 4
  timePath_sink_1_in1 <= 4
  8 branchC_1_sink_1160_flop - timePath_branchC_1_out2 + timePath_sink_1_in1 >= 0
  timePath_cst_4_out1 <= 4
  timePath_branchC_1_in2 <= 4
  8 cst_4_branchC_149_flop + timePath_branchC_1_in2 - timePath_cst_4_out1 >= 0
  timePath_forkC_9_out1 <= 4
  timePath_cst_1_in1 <= 4
  8 forkC_9_cst_144_flop + timePath_cst_1_in1 - timePath_forkC_9_out1 >= 0
  timePath_forkC_9_out2 <= 4
  timePath_phiC_4_in3 <= 4
  8 forkC_9_phiC_4104_flop - timePath_forkC_9_out2 + timePath_phiC_4_in3 >= 0
  timePath_forkC_10_out1 <= 4
  timePath_branchC_1_in1 <= 4
  8 forkC_10_branchC_148_flop + timePath_branchC_1_in1 - timePath_forkC_10_out1 >= 0
  timePath_forkC_10_out2 <= 4
  timePath_cst_4_in1 <= 4
  8 forkC_10_cst_452_flop + timePath_cst_4_in1 - timePath_forkC_10_out2 >= 0
  timePath_phi_3_out1 <= 4
  timePath_fork_2_in1 <= 4
  -timePath_phi_3_out1 + timePath_fork_2_in1 >= -8
  timePath_load_6_out1 <= 4
  timePath_fork_12_in1 <= 4
  -timePath_load_6_out1 + timePath_fork_12_in1 >= -0
  timePath_load_9_out1 <= 4
  timePath_add_13_in2 <= 4
  -timePath_load_9_out1 + timePath_add_13_in2 >= -0
  timePath_load_12_out1 <= 4
  timePath_add_13_in1 <= 4
  -timePath_load_12_out1 + timePath_add_13_in1 >= -0
  timePath_add_13_out1 <= 4
  timePath_store_0_in1 <= 4
  -timePath_add_13_out1 + timePath_store_0_in1 >= -0
  timePath_cst_2_out1 <= 4
  timePath_add_16_in2 <= 4
  -timePath_cst_2_out1 + timePath_add_16_in2 >= -0
  timePath_add_16_out1 <= 4
  timePath_fork_3_in1 <= 4
  -timePath_add_16_out1 + timePath_fork_3_in1 >= -0
  timePath_icmp_17_out1 <= 4
  timePath_fork_4_in1 <= 4
  -timePath_icmp_17_out1 + timePath_fork_4_in1 >= -0
  timePath_phiC_1_out1 <= 4
  timePath_forkC_11_in1 <= 4
  -timePath_phiC_1_out1 + timePath_forkC_11_in1 >= -0
  timePath_branchC_2_out1 <= 4
  timePath_phiC_1_in2 <= 4
  timePath_phiC_1_in2 - timePath_branchC_2_out1 >= -0
  timePath_branchC_2_out2 <= 4
  timePath_phiC_2_in2 <= 4
  8 branchC_2_phiC_2157_flop - timePath_branchC_2_out2 + timePath_phiC_2_in2 >= 0
  timePath_phi_n3_out1 <= 4
  timePath_fork_6_in1 <= 4
  -timePath_phi_n3_out1 + timePath_fork_6_in1 >= -8
  timePath_phiC_4_out1 <= 4
  timePath_forkC_7_in1 <= 4
  -timePath_phiC_4_out1 + timePath_forkC_7_in1 >= -8
  timePath_branch_3_out2 <= 4
  timePath_phi_3_in2 <= 4
  timePath_phi_3_in2 - timePath_branch_3_out2 >= -0
  timePath_branch_3_out1 <= 4
  timePath_phi_19_in3 <= 4
  8 branch_3_phi_19152_flop - timePath_branch_3_out1 + timePath_phi_19_in3 >= 0
  timePath_phi_n5_out1 <= 4
  timePath_fork_8_in1 <= 4
  -timePath_phi_n5_out1 + timePath_fork_8_in1 >= -0
  timePath_branch_7_out2 <= 4
  timePath_phi_n3_in2 <= 4
  timePath_phi_n3_in2 - timePath_branch_7_out2 >= -0
  timePath_branch_7_out1 <= 4
  timePath_sink_4_in1 <= 4
  8 branch_7_sink_4175_flop - timePath_branch_7_out1 + timePath_sink_4_in1 >= 0
  timePath_branchC_10_out2 <= 4
  timePath_phiC_4_in2 <= 4
  timePath_phiC_4_in2 - timePath_branchC_10_out2 >= -0
  timePath_branchC_10_out1 <= 4
  timePath_sink_6_in1 <= 4
  8 branchC_10_sink_6177_flop - timePath_branchC_10_out1 + timePath_sink_6_in1 >= 0
  timePath_fork_2_out2 <= 4
  timePath_load_6_in2 <= 4
  timePath_load_6_in2 - timePath_fork_2_out2 >= -0
  timePath_fork_2_out3 <= 4
  timePath_load_9_in2 <= 4
  timePath_load_9_in2 - timePath_fork_2_out3 >= -0
  timePath_fork_2_out1 <= 4
  timePath_add_16_in1 <= 4
  timePath_add_16_in1 - timePath_fork_2_out1 >= -0
  timePath_fork_3_out1 <= 4
  timePath_icmp_17_in1 <= 4
  timePath_icmp_17_in1 - timePath_fork_3_out1 >= -0
  timePath_fork_3_out2 <= 4
  timePath_branch_3_in1 <= 4
  timePath_branch_3_in1 - timePath_fork_3_out2 >= -0
  timePath_fork_4_out5 <= 4
  timePath_branchC_2_in2 <= 4
  timePath_branchC_2_in2 - timePath_fork_4_out5 >= -0
  timePath_fork_4_out1 <= 4
  timePath_branch_3_in2 <= 4
  timePath_branch_3_in2 - timePath_fork_4_out1 >= -0
  timePath_fork_4_out2 <= 4
  timePath_phi_n5_in2 <= 4
  timePath_phi_n5_in2 - timePath_fork_4_out2 >= -0
  timePath_fork_4_out3 <= 4
  timePath_branch_7_in2 <= 4
  timePath_branch_7_in2 - timePath_fork_4_out3 >= -0
  timePath_fork_4_out4 <= 4
  timePath_branchC_10_in2 <= 4
  timePath_branchC_10_in2 - timePath_fork_4_out4 >= -0
  timePath_fork_6_out1 <= 4
  timePath_icmp_17_in2 <= 4
  timePath_icmp_17_in2 - timePath_fork_6_out1 >= -0
  timePath_fork_6_out2 <= 4
  timePath_branch_7_in1 <= 4
  timePath_branch_7_in1 - timePath_fork_6_out2 >= -0
  timePath_forkC_7_out1 <= 4
  timePath_cst_2_in1 <= 4
  timePath_cst_2_in1 - timePath_forkC_7_out1 >= -0
  timePath_forkC_7_out2 <= 4
  timePath_branchC_10_in1 <= 4
  timePath_branchC_10_in1 - timePath_forkC_7_out2 >= -0
  timePath_fork_8_out1 <= 4
  timePath_phi_3_in1 <= 4
  timePath_phi_3_in1 - timePath_fork_8_out1 >= -0
  timePath_fork_8_out2 <= 4
  timePath_phi_n3_in1 <= 4
  timePath_phi_n3_in1 - timePath_fork_8_out2 >= -0
  timePath_fork_8_out3 <= 4
  timePath_phiC_4_in1 <= 4
  timePath_phiC_4_in1 - timePath_fork_8_out3 >= -0
  timePath_forkC_11_out1 <= 4
  timePath_branchC_2_in1 <= 4
  timePath_branchC_2_in1 - timePath_forkC_11_out1 >= -8
  timePath_fork_12_out1 <= 4
  timePath_load_12_in2 <= 4
  timePath_load_12_in2 - timePath_fork_12_out1 >= -0
  timePath_fork_12_out2 <= 4
  timePath_store_0_in2 <= 4
  timePath_store_0_in2 - timePath_fork_12_out2 >= -0
  timePath_phi_19_out1 <= 4
  timePath_ret_0_in1 <= 4
  8 phi_19_ret_0154_flop - timePath_phi_19_out1 + timePath_ret_0_in1 >= 0
  timePath_ret_0_out1 <= 4
  timePath_end_0_in4 <= 4
  8 ret_0_end_0181_flop - timePath_ret_0_out1 + timePath_end_0_in4 >= 0
  timePath_phiC_2_out1 <= 4
  timePath_sink_0_in1 <= 4
  8 phiC_2_sink_0159_flop - timePath_phiC_2_out1 + timePath_sink_0_in1 >= 0
  -timePath_cst_0_in1 + timePath_cst_0_out1 >= 0
  -timePath_icmp_0_in1 + timePath_icmp_0_out1 >= 1.53
  -timePath_icmp_0_in2 + timePath_icmp_0_out1 >= 1.53
  -timePath_cst_3_in1 + timePath_cst_3_out1 >= 0
  -timePath_branchC_0_in1 + timePath_branchC_0_out1 >= 0
  -timePath_branchC_0_in2 + timePath_branchC_0_out1 >= 0
  -timePath_branchC_0_in1 + timePath_branchC_0_out2 >= 0
  -timePath_branchC_0_in2 + timePath_branchC_0_out2 >= 0
  -timePath_cst_5_in1 + timePath_cst_5_out1 >= 0
  -timePath_branch_4_in1 + timePath_branch_4_out1 >= 0
  -timePath_branch_4_in2 + timePath_branch_4_out1 >= 0
  -timePath_branch_4_in1 + timePath_branch_4_out2 >= 0
  -timePath_branch_4_in2 + timePath_branch_4_out2 >= 0
  -timePath_branch_6_in1 + timePath_branch_6_out1 >= 0
  -timePath_branch_6_in2 + timePath_branch_6_out1 >= 0
  -timePath_branch_6_in1 + timePath_branch_6_out2 >= 0
  -timePath_branch_6_in2 + timePath_branch_6_out2 >= 0
  -timePath_branchC_8_in1 + timePath_branchC_8_out1 >= 0
  -timePath_branchC_8_in2 + timePath_branchC_8_out1 >= 0
  -timePath_branchC_8_in1 + timePath_branchC_8_out2 >= 0
  -timePath_branchC_8_in2 + timePath_branchC_8_out2 >= 0
  -timePath_fork_0_in1 + timePath_fork_0_out1 >= 0
  -timePath_fork_0_in1 + timePath_fork_0_out2 >= 0
  -timePath_fork_1_in1 + timePath_fork_1_out1 >= 0
  -timePath_fork_1_in1 + timePath_fork_1_out2 >= 0
  -timePath_fork_1_in1 + timePath_fork_1_out3 >= 0
  -timePath_fork_1_in1 + timePath_fork_1_out4 >= 0
  -timePath_fork_1_in1 + timePath_fork_1_out5 >= 0
  -timePath_forkC_5_in1 + timePath_forkC_5_out1 >= 0
  -timePath_forkC_5_in1 + timePath_forkC_5_out2 >= 0
  -timePath_forkC_5_in1 + timePath_forkC_5_out3 >= 0
  -timePath_forkC_5_in1 + timePath_forkC_5_out4 >= 0
  -timePath_forkC_5_in1 + timePath_forkC_5_out5 >= 0
  -timePath_cst_1_in1 + timePath_cst_1_out1 >= 0
  -timePath_phiC_0_in1 + timePath_phiC_0_out1 >= 0.166
  -timePath_branchC_1_in1 + timePath_branchC_1_out1 >= 0
  -timePath_branchC_1_in2 + timePath_branchC_1_out1 >= 0
  -timePath_branchC_1_in1 + timePath_branchC_1_out2 >= 0
  -timePath_branchC_1_in2 + timePath_branchC_1_out2 >= 0
  -timePath_cst_4_in1 + timePath_cst_4_out1 >= 0
  -timePath_forkC_9_in1 + timePath_forkC_9_out1 >= 0
  -timePath_forkC_9_in1 + timePath_forkC_9_out2 >= 0
  -timePath_forkC_10_in1 + timePath_forkC_10_out1 >= 0
  -timePath_forkC_10_in1 + timePath_forkC_10_out2 >= 0
  -timePath_phi_3_in1 + timePath_phi_3_out1 >= 0.366
  -timePath_phi_3_in2 + timePath_phi_3_out1 >= 0.366
  -timePath_phi_3_in3 + timePath_phi_3_out1 >= 0.366
  timePath_load_6_out1 = 0
  timePath_load_6_out2 = 0
  timePath_load_6_in1 <= 4
  timePath_load_6_in2 <= 4
  timePath_load_9_out1 = 0
  timePath_load_9_out2 = 0
  timePath_load_9_in1 <= 4
  timePath_load_9_in2 <= 4
  timePath_load_12_out1 = 0
  timePath_load_12_out2 = 0
  timePath_load_12_in1 <= 4
  timePath_load_12_in2 <= 4
  -timePath_add_13_in1 + timePath_add_13_out1 >= 1.693
  -timePath_add_13_in2 + timePath_add_13_out1 >= 1.693
  -timePath_store_0_in1 + timePath_store_0_out1 >= 0
  -timePath_store_0_in2 + timePath_store_0_out1 >= 0
  -timePath_store_0_in1 + timePath_store_0_out2 >= 0
  -timePath_store_0_in2 + timePath_store_0_out2 >= 0
  -timePath_cst_2_in1 + timePath_cst_2_out1 >= 0
  -timePath_add_16_in1 + timePath_add_16_out1 >= 1.693
  -timePath_add_16_in2 + timePath_add_16_out1 >= 1.693
  -timePath_icmp_17_in1 + timePath_icmp_17_out1 >= 1.53
  -timePath_icmp_17_in2 + timePath_icmp_17_out1 >= 1.53
  -timePath_phiC_1_in1 + timePath_phiC_1_out1 >= 0.166
  -timePath_phiC_1_in2 + timePath_phiC_1_out1 >= 0.166
  -timePath_branchC_2_in1 + timePath_branchC_2_out1 >= 0
  -timePath_branchC_2_in2 + timePath_branchC_2_out1 >= 0
  -timePath_branchC_2_in1 + timePath_branchC_2_out2 >= 0
  -timePath_branchC_2_in2 + timePath_branchC_2_out2 >= 0
  -timePath_phi_n3_in1 + timePath_phi_n3_out1 >= 0.366
  -timePath_phi_n3_in2 + timePath_phi_n3_out1 >= 0.366
  -timePath_phi_n3_in3 + timePath_phi_n3_out1 >= 0.366
  -timePath_phiC_4_in1 + timePath_phiC_4_out1 >= 0.166
  -timePath_phiC_4_in2 + timePath_phiC_4_out1 >= 0.166
  -timePath_phiC_4_in3 + timePath_phiC_4_out1 >= 0.166
  -timePath_branch_3_in1 + timePath_branch_3_out1 >= 0
  -timePath_branch_3_in2 + timePath_branch_3_out1 >= 0
  -timePath_branch_3_in1 + timePath_branch_3_out2 >= 0
  -timePath_branch_3_in2 + timePath_branch_3_out2 >= 0
  -timePath_phi_n5_in1 + timePath_phi_n5_out1 >= 0.366
  -timePath_phi_n5_in2 + timePath_phi_n5_out1 >= 0.366
  -timePath_branch_7_in1 + timePath_branch_7_out1 >= 0
  -timePath_branch_7_in2 + timePath_branch_7_out1 >= 0
  -timePath_branch_7_in1 + timePath_branch_7_out2 >= 0
  -timePath_branch_7_in2 + timePath_branch_7_out2 >= 0
  -timePath_branchC_10_in1 + timePath_branchC_10_out1 >= 0
  -timePath_branchC_10_in2 + timePath_branchC_10_out1 >= 0
  -timePath_branchC_10_in1 + timePath_branchC_10_out2 >= 0
  -timePath_branchC_10_in2 + timePath_branchC_10_out2 >= 0
  -timePath_fork_2_in1 + timePath_fork_2_out1 >= 0
  -timePath_fork_2_in1 + timePath_fork_2_out2 >= 0
  -timePath_fork_2_in1 + timePath_fork_2_out3 >= 0
  -timePath_fork_3_in1 + timePath_fork_3_out1 >= 0
  -timePath_fork_3_in1 + timePath_fork_3_out2 >= 0
  -timePath_fork_4_in1 + timePath_fork_4_out1 >= 0
  -timePath_fork_4_in1 + timePath_fork_4_out2 >= 0
  -timePath_fork_4_in1 + timePath_fork_4_out3 >= 0
  -timePath_fork_4_in1 + timePath_fork_4_out4 >= 0
  -timePath_fork_4_in1 + timePath_fork_4_out5 >= 0
  -timePath_fork_6_in1 + timePath_fork_6_out1 >= 0
  -timePath_fork_6_in1 + timePath_fork_6_out2 >= 0
  -timePath_forkC_7_in1 + timePath_forkC_7_out1 >= 0
  -timePath_forkC_7_in1 + timePath_forkC_7_out2 >= 0
  -timePath_fork_8_in1 + timePath_fork_8_out1 >= 0
  -timePath_fork_8_in1 + timePath_fork_8_out2 >= 0
  -timePath_fork_8_in1 + timePath_fork_8_out3 >= 0
  -timePath_forkC_11_in1 + timePath_forkC_11_out1 >= 0
  -timePath_forkC_11_in1 + timePath_forkC_11_out2 >= 0
  -timePath_fork_12_in1 + timePath_fork_12_out1 >= 0
  -timePath_fork_12_in1 + timePath_fork_12_out2 >= 0
  -timePath_phi_19_in1 + timePath_phi_19_out1 >= 0.366
  -timePath_phi_19_in2 + timePath_phi_19_out1 >= 0.366
  -timePath_phi_19_in3 + timePath_phi_19_out1 >= 0.366
  -timePath_ret_0_in1 + timePath_ret_0_out1 >= 0
  -timePath_phiC_2_in1 + timePath_phiC_2_out1 >= 0.166
  -timePath_phiC_2_in2 + timePath_phiC_2_out1 >= 0.166
  -timePath_LSQ_hist_in1 + timePath_LSQ_hist_out1 >= 0
  -timePath_LSQ_hist_in2 + timePath_LSQ_hist_out1 >= 0
  -timePath_LSQ_hist_in3 + timePath_LSQ_hist_out1 >= 0
  -timePath_LSQ_hist_in4 + timePath_LSQ_hist_out1 >= 0
  -timePath_LSQ_hist_in1 + timePath_LSQ_hist_out2 >= 0
  -timePath_LSQ_hist_in2 + timePath_LSQ_hist_out2 >= 0
  -timePath_LSQ_hist_in3 + timePath_LSQ_hist_out2 >= 0
  -timePath_LSQ_hist_in4 + timePath_LSQ_hist_out2 >= 0
  -timePath_MC_feature_in1 + timePath_MC_feature_out1 >= 0
  -timePath_MC_feature_in1 + timePath_MC_feature_out2 >= 0
  -timePath_MC_weight_in1 + timePath_MC_weight_out1 >= 0
  -timePath_MC_weight_in1 + timePath_MC_weight_out2 >= 0
  59 n_fork_029_flop - timeElastic_n_out1 + timeElastic_fork_0_in1 >= 0
  59 cst_0_icmp_05_flop - timeElastic_cst_0_out1 + timeElastic_icmp_0_in2 >= 0
  59 icmp_0_fork_132_flop - timeElastic_icmp_0_out1 + timeElastic_fork_1_in1 >= 0
  59 cst_3_branch_417_flop - timeElastic_cst_3_out1 + timeElastic_branch_4_in1 >= 0
  59 start_0_forkC_538_flop - timeElastic_start_0_out1 + timeElastic_forkC_5_in1 >= 0
  59 branchC_0_phiC_046_flop - timeElastic_branchC_0_out1 + timeElastic_phiC_0_in1 >= 0
  59 branchC_0_phiC_2156_flop - timeElastic_branchC_0_out2 + timeElastic_phiC_2_in1 >= 0
  59 cst_5_phi_n5110_flop - timeElastic_cst_5_out1 + timeElastic_phi_n5_in1 >= 0
  59 branch_4_phi_19151_flop - timeElastic_branch_4_out2 + timeElastic_phi_19_in2 >= 0
  59 branch_4_sink_2173_flop - timeElastic_branch_4_out1 + timeElastic_sink_2_in1 >= 0
  59 branch_6_phi_n3100_flop - timeElastic_branch_6_out2 + timeElastic_phi_n3_in3 >= 0
  59 branch_6_sink_3174_flop - timeElastic_branch_6_out1 + timeElastic_sink_3_in1 >= 0
  59 branchC_8_forkC_954_flop - timeElastic_branchC_8_out2 + timeElastic_forkC_9_in1 >= 0
  59 branchC_8_sink_5176_flop - timeElastic_branchC_8_out1 + timeElastic_sink_5_in1 >= 0
  59 fork_0_icmp_04_flop + timeElastic_icmp_0_in1 - timeElastic_fork_0_out1 >= 0
  59 fork_0_branch_621_flop + timeElastic_branch_6_in1 - timeElastic_fork_0_out2 >= 0
  59 fork_1_branchC_012_flop + timeElastic_branchC_0_in2 - timeElastic_fork_1_out5 >= 0
  59 fork_1_branch_418_flop + timeElastic_branch_4_in2 - timeElastic_fork_1_out1 >= 0
  59 fork_1_branch_622_flop + timeElastic_branch_6_in2 - timeElastic_fork_1_out2 >= 0
  59 fork_1_branchC_826_flop + timeElastic_branchC_8_in2 - timeElastic_fork_1_out3 >= 0
  59 fork_1_phi_19150_flop - timeElastic_fork_1_out4 + timeElastic_phi_19_in1 >= 0
  59 forkC_5_cst_02_flop + timeElastic_cst_0_in1 - timeElastic_forkC_5_out1 >= 0
  59 forkC_5_cst_37_flop + timeElastic_cst_3_in1 - timeElastic_forkC_5_out3 >= 0
  59 forkC_5_branchC_011_flop + timeElastic_branchC_0_in1 - timeElastic_forkC_5_out5 >= 0
  59 forkC_5_cst_515_flop + timeElastic_cst_5_in1 - timeElastic_forkC_5_out4 >= 0
  59 forkC_5_branchC_825_flop + timeElastic_branchC_8_in1 - timeElastic_forkC_5_out2 >= 0
  59 cst_1_phi_362_flop - timeElastic_cst_1_out1 + timeElastic_phi_3_in3 >= 0
  59 phiC_0_forkC_1057_flop - timeElastic_phiC_0_out1 + timeElastic_forkC_10_in1 >= 0
  59 branchC_1_phiC_191_flop - timeElastic_branchC_1_out1 + timeElastic_phiC_1_in1 >= 0
  59 branchC_1_sink_1160_flop - timeElastic_branchC_1_out2 + timeElastic_sink_1_in1 >= 0
  59 cst_4_branchC_149_flop + timeElastic_branchC_1_in2 - timeElastic_cst_4_out1 >= 0
  59 forkC_9_cst_144_flop + timeElastic_cst_1_in1 - timeElastic_forkC_9_out1 >= 0
  59 forkC_9_phiC_4104_flop - timeElastic_forkC_9_out2 + timeElastic_phiC_4_in3 >= 0
  59 forkC_10_branchC_148_flop + timeElastic_branchC_1_in1 - timeElastic_forkC_10_out1 >= 0
  59 forkC_10_cst_452_flop + timeElastic_cst_4_in1 - timeElastic_forkC_10_out2 >= 0
  -timeElastic_phi_3_out1 + timeElastic_fork_2_in1 >= -59
  -timeElastic_load_6_out1 + timeElastic_fork_12_in1 >= -0
  -timeElastic_load_9_out1 + timeElastic_add_13_in2 >= -0
  -timeElastic_load_12_out1 + timeElastic_add_13_in1 >= -0
  -timeElastic_add_13_out1 + timeElastic_store_0_in1 >= -0
  -timeElastic_cst_2_out1 + timeElastic_add_16_in2 >= -0
  -timeElastic_add_16_out1 + timeElastic_fork_3_in1 >= -0
  -timeElastic_icmp_17_out1 + timeElastic_fork_4_in1 >= -0
  -timeElastic_phiC_1_out1 + timeElastic_forkC_11_in1 >= -0
  timeElastic_phiC_1_in2 - timeElastic_branchC_2_out1 >= -0
  59 branchC_2_phiC_2157_flop - timeElastic_branchC_2_out2 + timeElastic_phiC_2_in2 >= 0
  -timeElastic_phi_n3_out1 + timeElastic_fork_6_in1 >= -59
  -timeElastic_phiC_4_out1 + timeElastic_forkC_7_in1 >= -59
  timeElastic_phi_3_in2 - timeElastic_branch_3_out2 >= -0
  59 branch_3_phi_19152_flop - timeElastic_branch_3_out1 + timeElastic_phi_19_in3 >= 0
  -timeElastic_phi_n5_out1 + timeElastic_fork_8_in1 >= -0
  timeElastic_phi_n3_in2 - timeElastic_branch_7_out2 >= -0
  59 branch_7_sink_4175_flop - timeElastic_branch_7_out1 + timeElastic_sink_4_in1 >= 0
  timeElastic_phiC_4_in2 - timeElastic_branchC_10_out2 >= -0
  59 branchC_10_sink_6177_flop - timeElastic_branchC_10_out1 + timeElastic_sink_6_in1 >= 0
  timeElastic_load_6_in2 - timeElastic_fork_2_out2 >= -0
  timeElastic_load_9_in2 - timeElastic_fork_2_out3 >= -0
  timeElastic_add_16_in1 - timeElastic_fork_2_out1 >= -0
  timeElastic_icmp_17_in1 - timeElastic_fork_3_out1 >= -0
  timeElastic_branch_3_in1 - timeElastic_fork_3_out2 >= -0
  timeElastic_branchC_2_in2 - timeElastic_fork_4_out5 >= -0
  timeElastic_branch_3_in2 - timeElastic_fork_4_out1 >= -0
  timeElastic_phi_n5_in2 - timeElastic_fork_4_out2 >= -0
  timeElastic_branch_7_in2 - timeElastic_fork_4_out3 >= -0
  timeElastic_branchC_10_in2 - timeElastic_fork_4_out4 >= -0
  timeElastic_icmp_17_in2 - timeElastic_fork_6_out1 >= -0
  timeElastic_branch_7_in1 - timeElastic_fork_6_out2 >= -0
  timeElastic_cst_2_in1 - timeElastic_forkC_7_out1 >= -0
  timeElastic_branchC_10_in1 - timeElastic_forkC_7_out2 >= -0
  timeElastic_phi_3_in1 - timeElastic_fork_8_out1 >= -0
  timeElastic_phi_n3_in1 - timeElastic_fork_8_out2 >= -0
  timeElastic_phiC_4_in1 - timeElastic_fork_8_out3 >= -0
  timeElastic_branchC_2_in1 - timeElastic_forkC_11_out1 >= -59
  timeElastic_load_12_in2 - timeElastic_fork_12_out1 >= -0
  timeElastic_store_0_in2 - timeElastic_fork_12_out2 >= -0
  59 phi_19_ret_0154_flop - timeElastic_phi_19_out1 + timeElastic_ret_0_in1 >= 0
  59 ret_0_end_0181_flop - timeElastic_ret_0_out1 + timeElastic_end_0_in4 >= 0
  59 phiC_2_sink_0159_flop - timeElastic_phiC_2_out1 + timeElastic_sink_0_in1 >= 0
  -timeElastic_cst_0_in1 + timeElastic_cst_0_out1 >= 1
  -timeElastic_icmp_0_in1 + timeElastic_icmp_0_out1 >= 1
  -timeElastic_icmp_0_in2 + timeElastic_icmp_0_out1 >= 1
  -timeElastic_cst_3_in1 + timeElastic_cst_3_out1 >= 1
  -timeElastic_branchC_0_in1 + timeElastic_branchC_0_out1 >= 1
  -timeElastic_branchC_0_in2 + timeElastic_branchC_0_out1 >= 1
  -timeElastic_branchC_0_in1 + timeElastic_branchC_0_out2 >= 1
  -timeElastic_branchC_0_in2 + timeElastic_branchC_0_out2 >= 1
  -timeElastic_cst_5_in1 + timeElastic_cst_5_out1 >= 1
  -timeElastic_branch_4_in1 + timeElastic_branch_4_out1 >= 1
  -timeElastic_branch_4_in2 + timeElastic_branch_4_out1 >= 1
  -timeElastic_branch_4_in1 + timeElastic_branch_4_out2 >= 1
  -timeElastic_branch_4_in2 + timeElastic_branch_4_out2 >= 1
  -timeElastic_branch_6_in1 + timeElastic_branch_6_out1 >= 1
  -timeElastic_branch_6_in2 + timeElastic_branch_6_out1 >= 1
  -timeElastic_branch_6_in1 + timeElastic_branch_6_out2 >= 1
  -timeElastic_branch_6_in2 + timeElastic_branch_6_out2 >= 1
  -timeElastic_branchC_8_in1 + timeElastic_branchC_8_out1 >= 1
  -timeElastic_branchC_8_in2 + timeElastic_branchC_8_out1 >= 1
  -timeElastic_branchC_8_in1 + timeElastic_branchC_8_out2 >= 1
  -timeElastic_branchC_8_in2 + timeElastic_branchC_8_out2 >= 1
  -timeElastic_fork_0_in1 + timeElastic_fork_0_out1 >= 1
  -timeElastic_fork_0_in1 + timeElastic_fork_0_out2 >= 1
  -timeElastic_fork_1_in1 + timeElastic_fork_1_out1 >= 1
  -timeElastic_fork_1_in1 + timeElastic_fork_1_out2 >= 1
  -timeElastic_fork_1_in1 + timeElastic_fork_1_out3 >= 1
  -timeElastic_fork_1_in1 + timeElastic_fork_1_out4 >= 1
  -timeElastic_fork_1_in1 + timeElastic_fork_1_out5 >= 1
  -timeElastic_forkC_5_in1 + timeElastic_forkC_5_out1 >= 1
  -timeElastic_forkC_5_in1 + timeElastic_forkC_5_out2 >= 1
  -timeElastic_forkC_5_in1 + timeElastic_forkC_5_out3 >= 1
  -timeElastic_forkC_5_in1 + timeElastic_forkC_5_out4 >= 1
  -timeElastic_forkC_5_in1 + timeElastic_forkC_5_out5 >= 1
  -timeElastic_cst_1_in1 + timeElastic_cst_1_out1 >= 1
  -timeElastic_phiC_0_in1 + timeElastic_phiC_0_out1 >= 1
  -timeElastic_branchC_1_in1 + timeElastic_branchC_1_out1 >= 1
  -timeElastic_branchC_1_in2 + timeElastic_branchC_1_out1 >= 1
  -timeElastic_branchC_1_in1 + timeElastic_branchC_1_out2 >= 1
  -timeElastic_branchC_1_in2 + timeElastic_branchC_1_out2 >= 1
  -timeElastic_cst_4_in1 + timeElastic_cst_4_out1 >= 1
  -timeElastic_forkC_9_in1 + timeElastic_forkC_9_out1 >= 1
  -timeElastic_forkC_9_in1 + timeElastic_forkC_9_out2 >= 1
  -timeElastic_forkC_10_in1 + timeElastic_forkC_10_out1 >= 1
  -timeElastic_forkC_10_in1 + timeElastic_forkC_10_out2 >= 1
  -timeElastic_phi_3_in1 + timeElastic_phi_3_out1 >= 1
  -timeElastic_phi_3_in2 + timeElastic_phi_3_out1 >= 1
  -timeElastic_phi_3_in3 + timeElastic_phi_3_out1 >= 1
  -timeElastic_load_6_in1 + timeElastic_load_6_out1 >= 1
  -timeElastic_load_6_in2 + timeElastic_load_6_out1 >= 1
  -timeElastic_load_6_in1 + timeElastic_load_6_out2 >= 1
  -timeElastic_load_6_in2 + timeElastic_load_6_out2 >= 1
  -timeElastic_load_9_in1 + timeElastic_load_9_out1 >= 1
  -timeElastic_load_9_in2 + timeElastic_load_9_out1 >= 1
  -timeElastic_load_9_in1 + timeElastic_load_9_out2 >= 1
  -timeElastic_load_9_in2 + timeElastic_load_9_out2 >= 1
  -timeElastic_load_12_in1 + timeElastic_load_12_out1 >= 1
  -timeElastic_load_12_in2 + timeElastic_load_12_out1 >= 1
  -timeElastic_load_12_in1 + timeElastic_load_12_out2 >= 1
  -timeElastic_load_12_in2 + timeElastic_load_12_out2 >= 1
  -timeElastic_add_13_in1 + timeElastic_add_13_out1 >= 1
  -timeElastic_add_13_in2 + timeElastic_add_13_out1 >= 1
  -timeElastic_store_0_in1 + timeElastic_store_0_out1 >= 1
  -timeElastic_store_0_in2 + timeElastic_store_0_out1 >= 1
  -timeElastic_store_0_in1 + timeElastic_store_0_out2 >= 1
  -timeElastic_store_0_in2 + timeElastic_store_0_out2 >= 1
  -timeElastic_cst_2_in1 + timeElastic_cst_2_out1 >= 1
  -timeElastic_add_16_in1 + timeElastic_add_16_out1 >= 1
  -timeElastic_add_16_in2 + timeElastic_add_16_out1 >= 1
  -timeElastic_icmp_17_in1 + timeElastic_icmp_17_out1 >= 1
  -timeElastic_icmp_17_in2 + timeElastic_icmp_17_out1 >= 1
  -timeElastic_phiC_1_in1 + timeElastic_phiC_1_out1 >= 1
  -timeElastic_phiC_1_in2 + timeElastic_phiC_1_out1 >= 1
  -timeElastic_branchC_2_in1 + timeElastic_branchC_2_out1 >= 1
  -timeElastic_branchC_2_in2 + timeElastic_branchC_2_out1 >= 1
  -timeElastic_branchC_2_in1 + timeElastic_branchC_2_out2 >= 1
  -timeElastic_branchC_2_in2 + timeElastic_branchC_2_out2 >= 1
  -timeElastic_phi_n3_in1 + timeElastic_phi_n3_out1 >= 1
  -timeElastic_phi_n3_in2 + timeElastic_phi_n3_out1 >= 1
  -timeElastic_phi_n3_in3 + timeElastic_phi_n3_out1 >= 1
  -timeElastic_phiC_4_in1 + timeElastic_phiC_4_out1 >= 1
  -timeElastic_phiC_4_in2 + timeElastic_phiC_4_out1 >= 1
  -timeElastic_phiC_4_in3 + timeElastic_phiC_4_out1 >= 1
  -timeElastic_branch_3_in1 + timeElastic_branch_3_out1 >= 1
  -timeElastic_branch_3_in2 + timeElastic_branch_3_out1 >= 1
  -timeElastic_branch_3_in1 + timeElastic_branch_3_out2 >= 1
  -timeElastic_branch_3_in2 + timeElastic_branch_3_out2 >= 1
  -timeElastic_phi_n5_in1 + timeElastic_phi_n5_out1 >= 1
  -timeElastic_phi_n5_in2 + timeElastic_phi_n5_out1 >= 1
  -timeElastic_branch_7_in1 + timeElastic_branch_7_out1 >= 1
  -timeElastic_branch_7_in2 + timeElastic_branch_7_out1 >= 1
  -timeElastic_branch_7_in1 + timeElastic_branch_7_out2 >= 1
  -timeElastic_branch_7_in2 + timeElastic_branch_7_out2 >= 1
  -timeElastic_branchC_10_in1 + timeElastic_branchC_10_out1 >= 1
  -timeElastic_branchC_10_in2 + timeElastic_branchC_10_out1 >= 1
  -timeElastic_branchC_10_in1 + timeElastic_branchC_10_out2 >= 1
  -timeElastic_branchC_10_in2 + timeElastic_branchC_10_out2 >= 1
  -timeElastic_fork_2_in1 + timeElastic_fork_2_out1 >= 1
  -timeElastic_fork_2_in1 + timeElastic_fork_2_out2 >= 1
  -timeElastic_fork_2_in1 + timeElastic_fork_2_out3 >= 1
  -timeElastic_fork_3_in1 + timeElastic_fork_3_out1 >= 1
  -timeElastic_fork_3_in1 + timeElastic_fork_3_out2 >= 1
  -timeElastic_fork_4_in1 + timeElastic_fork_4_out1 >= 1
  -timeElastic_fork_4_in1 + timeElastic_fork_4_out2 >= 1
  -timeElastic_fork_4_in1 + timeElastic_fork_4_out3 >= 1
  -timeElastic_fork_4_in1 + timeElastic_fork_4_out4 >= 1
  -timeElastic_fork_4_in1 + timeElastic_fork_4_out5 >= 1
  -timeElastic_fork_6_in1 + timeElastic_fork_6_out1 >= 1
  -timeElastic_fork_6_in1 + timeElastic_fork_6_out2 >= 1
  -timeElastic_forkC_7_in1 + timeElastic_forkC_7_out1 >= 1
  -timeElastic_forkC_7_in1 + timeElastic_forkC_7_out2 >= 1
  -timeElastic_fork_8_in1 + timeElastic_fork_8_out1 >= 1
  -timeElastic_fork_8_in1 + timeElastic_fork_8_out2 >= 1
  -timeElastic_fork_8_in1 + timeElastic_fork_8_out3 >= 1
  -timeElastic_forkC_11_in1 + timeElastic_forkC_11_out1 >= 1
  -timeElastic_forkC_11_in1 + timeElastic_forkC_11_out2 >= 1
  -timeElastic_fork_12_in1 + timeElastic_fork_12_out1 >= 1
  -timeElastic_fork_12_in1 + timeElastic_fork_12_out2 >= 1
  -timeElastic_phi_19_in1 + timeElastic_phi_19_out1 >= 1
  -timeElastic_phi_19_in2 + timeElastic_phi_19_out1 >= 1
  -timeElastic_phi_19_in3 + timeElastic_phi_19_out1 >= 1
  -timeElastic_ret_0_in1 + timeElastic_ret_0_out1 >= 1
  -timeElastic_phiC_2_in1 + timeElastic_phiC_2_out1 >= 1
  -timeElastic_phiC_2_in2 + timeElastic_phiC_2_out1 >= 1
  -timeElastic_LSQ_hist_in1 + timeElastic_LSQ_hist_out1 >= 1
  -timeElastic_LSQ_hist_in2 + timeElastic_LSQ_hist_out1 >= 1
  -timeElastic_LSQ_hist_in3 + timeElastic_LSQ_hist_out1 >= 1
  -timeElastic_LSQ_hist_in4 + timeElastic_LSQ_hist_out1 >= 1
  -timeElastic_LSQ_hist_in1 + timeElastic_LSQ_hist_out2 >= 1
  -timeElastic_LSQ_hist_in2 + timeElastic_LSQ_hist_out2 >= 1
  -timeElastic_LSQ_hist_in3 + timeElastic_LSQ_hist_out2 >= 1
  -timeElastic_LSQ_hist_in4 + timeElastic_LSQ_hist_out2 >= 1
  -timeElastic_MC_feature_in1 + timeElastic_MC_feature_out1 >= 1
  -timeElastic_MC_feature_in1 + timeElastic_MC_feature_out2 >= 1
  -timeElastic_MC_weight_in1 + timeElastic_MC_weight_out1 >= 1
  -timeElastic_MC_weight_in1 + timeElastic_MC_weight_out2 >= 1
Binary
  n_fork_029_flop cst_0_icmp_05_flop icmp_0_fork_132_flop cst_3_branch_417_flop start_0_forkC_538_flop branchC_0_phiC_046_flop branchC_0_phiC_2156_flop cst_5_phi_n5110_flop branch_4_phi_19151_flop branch_4_sink_2173_flop branch_6_phi_n3100_flop branch_6_sink_3174_flop branchC_8_forkC_954_flop branchC_8_sink_5176_flop fork_0_icmp_04_flop fork_0_branch_621_flop fork_1_branchC_012_flop fork_1_branch_418_flop fork_1_branch_622_flop fork_1_branchC_826_flop fork_1_phi_19150_flop forkC_5_cst_02_flop forkC_5_cst_37_flop forkC_5_branchC_011_flop forkC_5_cst_515_flop forkC_5_branchC_825_flop cst_1_phi_362_flop phiC_0_forkC_1057_flop branchC_1_phiC_191_flop branchC_1_sink_1160_flop cst_4_branchC_149_flop forkC_9_cst_144_flop forkC_9_phiC_4104_flop forkC_10_branchC_148_flop forkC_10_cst_452_flop load_6_MC_feature167_flop load_9_MC_weight170_flop load_12_LSQ_hist162_flop store_0_LSQ_hist163_flop store_0_LSQ_hist164_flop branchC_2_phiC_2157_flop branch_3_phi_19152_flop branch_7_sink_4175_flop branchC_10_sink_6177_flop forkC_11_LSQ_hist161_flop phi_19_ret_0154_flop ret_0_end_0181_flop phiC_2_sink_0159_flop LSQ_hist_load_1272_flop LSQ_hist_end_0178_flop MC_feature_load_664_flop MC_feature_end_0179_flop MC_weight_load_968_flop MC_weight_end_0180_flop
End
